22      4       
10      10      10      10      
0       0       0       0       0       4       2       3       4       5       
9       4       4       5       10      1       7       
1       7       5       10      6       1       8       
9       7       1       7       4       1       6       
4       2       10      2       1       1       17      
9       2       2       1       2       1       10      
2       5       8       5       10      1       9       
8       8       8       7       9       1       14      
10      7       8       3       2       1       11      
2       8       5       10      5       1       12      
10      9       2       10      7       2       20      21      
10      6       4       1       5       1       13      
10      5       8       10      2       1       16      
5       5       1       2       4       1       15      
8       7       4       7       7       1       18      
2       2       6       5       8       1       19      
6       10      3       8       4       1       21      
2       1       7       7       3       1       22      
9       7       8       10      2       1       22      
7       8       9       5       10      1       22      
3       7       3       5       1       1       22      
0       0       0       0       0       0       
